0001 1
0002 10
0003 7
0004 4
0005 1
0006 6
0007 10
0008 10
0009 1
0010 8
0011 4
0012 8
0013 8
0014 8
0015 7
0016 8
0017 2
0018 1
0019 3
0020 6
0021 9
0022 8
0023 1
0024 4
0025 3
0026 10
0027 4
0028 6
0029 5
0030 8
0031 7
0032 6
0033 2
0034 1
0035 4
0036 10
0037 1
0038 5
0039 9
0040 8
0041 4
0042 10
0043 5
0044 1
0045 1
0046 5
0047 5
0048 3
0049 10
0050 1
0051 6
0052 8
0053 1
0054 10
0055 3
0056 2
0057 1
0058 8
0059 4
0060 5
0061 9
0062 7
0063 6
0064 1
0065 2
0066 10
0067 9
0068 10
0069 3
0070 10
0071 7
0072 5
0073 9
0074 1
0075 1
0076 10
0077 1
0078 7
0079 10
0080 4
0081 2
0082 5
0083 8
0084 10
0085 9
0086 6
0087 9
0088 2
0089 10
0090 3
0091 6
0092 5
0093 6
0094 4
0095 7
0096 8
0097 8
0098 10
0099 1
0100 8
0101 8
0102 8
0103 8
0104 8
0105 10
0106 4
0107 2
0108 7
0109 8
0110 2
0111 5
0112 9
0113 3
0114 1
0115 7
0116 10
0117 3
0118 6
0119 5
0120 3
0121 9
0122 5
0123 1
0124 10
0125 7
0126 8
0127 5
0128 4
0129 1
0130 3
0131 4
0132 5
0133 10
0134 1
0135 7
0136 6
0137 3
0138 4
0139 6
0140 4
0141 8
0142 1
0143 9
0144 6
0145 3
0146 1
0147 7
0148 9
0149 3
0150 5
0151 5
0152 6
0153 8
0154 5
0155 10
0156 10
0157 9
0158 8
0159 10
0160 4
0161 7
0162 2
0163 10
0164 5
0165 8
0166 10
0167 6
0168 5
0169 10
0170 1
0171 10
0172 1
0173 5
0174 9
0175 10
0176 9
0177 7
0178 2
0179 10
0180 7
0181 1
0182 10
0183 8
0184 10
